
  12    4
  10   10   10   10

   0   0   0   0   0   4 2 4 5 6 
   9  10  10  10  10   3 11 7 3 
   8  10  10  10  10   2 9 8 
   7  10  10  10  10   2 10 7 
  10  10  10  10  10   2 8 7 
   8  10  10  10  10   2 8 7 
   8  10  10  10  10   1 12
   7  10  10  10  10   1 12
   5  10  10  10  10   1 12
   3  10  10  10  10   1 12
   6  10  10  10  10   1 12
   0   0   0   0   0   0 
